results/res_prop_muc/res_Cimatti_mathsat_cores/QF_UF/NEQ015_size5.smt.smt2.out

real	0m6.951s
user	0m6.473s
sys	0m0.396s
