results/res_prop_muc/res_Cimatti_mathsat_cores/QF_UF/NEQ015_size5.smt.smt2.res
unsat
( _c0
  _c10285
  _c10286
  _c10287
  _c10288
  _c10289
  _c10291
  _c11070
  _c11086
  _c11087
  _c11088
  _c11102
  _c11103
  _c11104
  _c11105
  _c11107
  _c11118
  _c11119
  _c11120
  _c11123
  _c11134
  _c11135
  _c11137
  _c11139
  _c12485
  _c12486
  _c12487
  _c12488
  _c12489
  _c12491
  _c12694
  _c12695
  _c12696
  _c12697
  _c12698
  _c12699
  _c12700
  _c12701
  _c12702
  _c2424
  _c2426
  _c2427
  _c802
  _c807
  _c808
  _c812
  _c817
  _c822 )
